c FILE: miles750.col
c Translated from Stanford GraphBase File: miles750.gb
c Stanford GraphBase ID: miles(128,0,0,0,750,127,0)
p edge 128 4226
e 1 128
e 1 122
e 1 120
e 1 119
e 1 117
e 1 114
e 1 110
e 1 109
e 1 108
e 1 105
e 1 103
e 1 102
e 1 98
e 1 90
e 1 88
e 1 80
e 1 79
e 1 76
e 1 74
e 1 72
e 1 70
e 1 67
e 1 64
e 1 57
e 1 55
e 1 47
e 1 44
e 1 37
e 1 33
e 1 32
e 1 31
e 1 27
e 1 12
e 2 128
e 2 127
e 2 126
e 2 123
e 2 122
e 2 118
e 2 116
e 2 115
e 2 113
e 2 111
e 2 107
e 2 99
e 2 96
e 2 94
e 2 93
e 2 92
e 2 91
e 2 89
e 2 88
e 2 86
e 2 84
e 2 83
e 2 82
e 2 76
e 2 75
e 2 71
e 2 70
e 2 69
e 2 68
e 2 66
e 2 64
e 2 62
e 2 61
e 2 60
e 2 58
e 2 53
e 2 52
e 2 46
e 2 45
e 2 41
e 2 38
e 2 36
e 2 30
e 2 28
e 2 25
e 2 24
e 2 23
e 2 22
e 2 20
e 2 13
e 2 10
e 2 8
e 2 7
e 2 6
e 3 124
e 3 104
e 3 87
e 3 85
e 3 81
e 3 63
e 3 59
e 3 50
e 3 49
e 3 48
e 3 42
e 3 35
e 3 32
e 3 26
e 3 21
e 3 18
e 3 16
e 3 11
e 3 9
e 3 5
e 3 4
e 4 124
e 4 104
e 4 77
e 4 59
e 4 54
e 4 49
e 4 48
e 4 40
e 4 29
e 4 26
e 4 21
e 4 18
e 4 15
e 4 9
e 4 5
e 4 3
e 5 104
e 5 87
e 5 81
e 5 77
e 5 63
e 5 48
e 5 37
e 5 35
e 5 33
e 5 32
e 5 29
e 5 21
e 5 16
e 5 12
e 5 9
e 5 4
e 5 3
e 6 127
e 6 122
e 6 113
e 6 111
e 6 107
e 6 106
e 6 96
e 6 95
e 6 93
e 6 89
e 6 84
e 6 76
e 6 75
e 6 71
e 6 70
e 6 67
e 6 64
e 6 60
e 6 56
e 6 41
e 6 23
e 6 13
e 6 10
e 6 2
e 7 128
e 7 126
e 7 125
e 7 123
e 7 115
e 7 114
e 7 113
e 7 110
e 7 107
e 7 101
e 7 100
e 7 99
e 7 94
e 7 92
e 7 91
e 7 88
e 7 83
e 7 78
e 7 76
e 7 73
e 7 69
e 7 68
e 7 66
e 7 62
e 7 58
e 7 52
e 7 46
e 7 45
e 7 43
e 7 39
e 7 28
e 7 27
e 7 25
e 7 20
e 7 19
e 7 14
e 7 8
e 7 2
e 8 128
e 8 126
e 8 125
e 8 123
e 8 122
e 8 117
e 8 115
e 8 114
e 8 113
e 8 110
e 8 108
e 8 107
e 8 105
e 8 102
e 8 101
e 8 100
e 8 99
e 8 97
e 8 94
e 8 92
e 8 91
e 8 90
e 8 88
e 8 83
e 8 79
e 8 78
e 8 76
e 8 75
e 8 74
e 8 73
e 8 69
e 8 68
e 8 66
e 8 65
e 8 64
e 8 62
e 8 58
e 8 52
e 8 45
e 8 43
e 8 39
e 8 28
e 8 27
e 8 20
e 8 19
e 8 14
e 8 10
e 8 7
e 8 2
e 9 124
e 9 104
e 9 87
e 9 85
e 9 81
e 9 77
e 9 59
e 9 54
e 9 49
e 9 48
e 9 42
e 9 40
e 9 29
e 9 26
e 9 21
e 9 18
e 9 15
e 9 5
e 9 4
e 9 3
e 10 127
e 10 126
e 10 123
e 10 118
e 10 116
e 10 115
e 10 113
e 10 111
e 10 107
e 10 99
e 10 96
e 10 94
e 10 93
e 10 92
e 10 91
e 10 88
e 10 86
e 10 84
e 10 83
e 10 82
e 10 76
e 10 75
e 10 71
e 10 69
e 10 68
e 10 66
e 10 62
e 10 61
e 10 58
e 10 53
e 10 52
e 10 46
e 10 45
e 10 41
e 10 38
e 10 36
e 10 30
e 10 28
e 10 25
e 10 24
e 10 22
e 10 20
e 10 13
e 10 8
e 10 6
e 10 2
e 11 104
e 11 85
e 11 81
e 11 63
e 11 59
e 11 50
e 11 49
e 11 42
e 11 17
e 11 3
e 12 120
e 12 117
e 12 112
e 12 110
e 12 109
e 12 108
e 12 103
e 12 102
e 12 98
e 12 90
e 12 87
e 12 80
e 12 79
e 12 74
e 12 55
e 12 48
e 12 47
e 12 44
e 12 37
e 12 35
e 12 33
e 12 32
e 12 31
e 12 16
e 12 5
e 12 1
e 13 127
e 13 123
e 13 122
e 13 113
e 13 111
e 13 107
e 13 106
e 13 96
e 13 95
e 13 93
e 13 89
e 13 84
e 13 76
e 13 75
e 13 71
e 13 70
e 13 67
e 13 64
e 13 60
e 13 56
e 13 45
e 13 41
e 13 30
e 13 24
e 13 23
e 13 10
e 13 6
e 13 2
e 14 128
e 14 126
e 14 125
e 14 123
e 14 115
e 14 114
e 14 101
e 14 100
e 14 99
e 14 97
e 14 94
e 14 92
e 14 91
e 14 88
e 14 83
e 14 78
e 14 76
e 14 73
e 14 69
e 14 68
e 14 66
e 14 65
e 14 62
e 14 52
e 14 45
e 14 43
e 14 39
e 14 28
e 14 27
e 14 19
e 14 8
e 14 7
e 15 124
e 15 112
e 15 104
e 15 77
e 15 54
e 15 49
e 15 48
e 15 40
e 15 29
e 15 26
e 15 21
e 15 18
e 15 9
e 15 4
e 16 125
e 16 121
e 16 117
e 16 114
e 16 110
e 16 105
e 16 102
e 16 97
e 16 90
e 16 87
e 16 80
e 16 79
e 16 74
e 16 65
e 16 48
e 16 47
e 16 37
e 16 35
e 16 33
e 16 32
e 16 12
e 16 5
e 16 3
e 17 85
e 17 81
e 17 63
e 17 59
e 17 50
e 17 49
e 17 42
e 17 11
e 18 124
e 18 104
e 18 77
e 18 59
e 18 54
e 18 49
e 18 40
e 18 29
e 18 26
e 18 21
e 18 15
e 18 9
e 18 4
e 18 3
e 19 128
e 19 126
e 19 125
e 19 123
e 19 117
e 19 115
e 19 114
e 19 110
e 19 108
e 19 105
e 19 101
e 19 100
e 19 99
e 19 97
e 19 92
e 19 91
e 19 90
e 19 88
e 19 79
e 19 78
e 19 76
e 19 74
e 19 73
e 19 68
e 19 66
e 19 65
e 19 62
e 19 52
e 19 51
e 19 43
e 19 39
e 19 28
e 19 27
e 19 14
e 19 8
e 19 7
e 20 128
e 20 127
e 20 126
e 20 123
e 20 118
e 20 116
e 20 115
e 20 113
e 20 111
e 20 107
e 20 99
e 20 96
e 20 94
e 20 93
e 20 92
e 20 91
e 20 88
e 20 86
e 20 84
e 20 83
e 20 82
e 20 76
e 20 75
e 20 69
e 20 68
e 20 66
e 20 62
e 20 61
e 20 58
e 20 53
e 20 52
e 20 46
e 20 45
e 20 43
e 20 41
e 20 38
e 20 36
e 20 30
e 20 28
e 20 25
e 20 24
e 20 22
e 20 10
e 20 8
e 20 7
e 20 2
e 21 124
e 21 104
e 21 81
e 21 77
e 21 59
e 21 54
e 21 49
e 21 48
e 21 42
e 21 40
e 21 29
e 21 26
e 21 18
e 21 15
e 21 9
e 21 5
e 21 4
e 21 3
e 22 126
e 22 123
e 22 118
e 22 116
e 22 115
e 22 113
e 22 94
e 22 93
e 22 86
e 22 83
e 22 82
e 22 69
e 22 66
e 22 61
e 22 58
e 22 53
e 22 52
e 22 46
e 22 45
e 22 41
e 22 38
e 22 36
e 22 30
e 22 25
e 22 24
e 22 20
e 22 10
e 22 2
e 23 127
e 23 122
e 23 111
e 23 107
e 23 106
e 23 96
e 23 95
e 23 89
e 23 84
e 23 76
e 23 75
e 23 71
e 23 70
e 23 67
e 23 64
e 23 60
e 23 57
e 23 56
e 23 55
e 23 13
e 23 6
e 23 2
e 24 127
e 24 126
e 24 123
e 24 118
e 24 116
e 24 115
e 24 113
e 24 111
e 24 107
e 24 99
e 24 96
e 24 94
e 24 93
e 24 92
e 24 91
e 24 88
e 24 86
e 24 84
e 24 83
e 24 82
e 24 75
e 24 71
e 24 69
e 24 68
e 24 66
e 24 62
e 24 61
e 24 58
e 24 53
e 24 52
e 24 46
e 24 45
e 24 41
e 24 38
e 24 36
e 24 30
e 24 28
e 24 25
e 24 22
e 24 20
e 24 13
e 24 10
e 24 2
e 25 127
e 25 126
e 25 123
e 25 118
e 25 116
e 25 115
e 25 113
e 25 111
e 25 107
e 25 99
e 25 94
e 25 93
e 25 92
e 25 91
e 25 86
e 25 84
e 25 83
e 25 82
e 25 75
e 25 69
e 25 68
e 25 66
e 25 62
e 25 61
e 25 58
e 25 53
e 25 52
e 25 46
e 25 45
e 25 41
e 25 38
e 25 36
e 25 30
e 25 28
e 25 24
e 25 22
e 25 20
e 25 10
e 25 7
e 25 2
e 26 124
e 26 104
e 26 77
e 26 59
e 26 54
e 26 49
e 26 40
e 26 29
e 26 21
e 26 18
e 26 15
e 26 9
e 26 4
e 26 3
e 27 128
e 27 127
e 27 126
e 27 125
e 27 123
e 27 122
e 27 117
e 27 115
e 27 114
e 27 113
e 27 110
e 27 109
e 27 108
e 27 107
e 27 105
e 27 103
e 27 102
e 27 101
e 27 100
e 27 99
e 27 98
e 27 97
e 27 92
e 27 91
e 27 90
e 27 88
e 27 83
e 27 80
e 27 79
e 27 78
e 27 76
e 27 75
e 27 74
e 27 73
e 27 70
e 27 69
e 27 68
e 27 67
e 27 66
e 27 64
e 27 62
e 27 57
e 27 55
e 27 52
e 27 45
e 27 43
e 27 39
e 27 31
e 27 28
e 27 19
e 27 14
e 27 8
e 27 7
e 27 1
e 28 128
e 28 127
e 28 126
e 28 125
e 28 123
e 28 118
e 28 116
e 28 115
e 28 114
e 28 113
e 28 111
e 28 110
e 28 108
e 28 107
e 28 101
e 28 100
e 28 99
e 28 96
e 28 94
e 28 93
e 28 92
e 28 91
e 28 88
e 28 86
e 28 83
e 28 82
e 28 79
e 28 78
e 28 76
e 28 75
e 28 74
e 28 73
e 28 69
e 28 68
e 28 66
e 28 64
e 28 62
e 28 61
e 28 58
e 28 53
e 28 52
e 28 46
e 28 45
e 28 43
e 28 41
e 28 39
e 28 38
e 28 36
e 28 30
e 28 27
e 28 25
e 28 24
e 28 20
e 28 19
e 28 14
e 28 10
e 28 8
e 28 7
e 28 2
e 29 124
e 29 112
e 29 104
e 29 77
e 29 54
e 29 49
e 29 48
e 29 40
e 29 26
e 29 21
e 29 18
e 29 15
e 29 9
e 29 5
e 29 4
e 30 127
e 30 126
e 30 123
e 30 118
e 30 116
e 30 115
e 30 113
e 30 111
e 30 107
e 30 99
e 30 96
e 30 94
e 30 93
e 30 92
e 30 91
e 30 88
e 30 86
e 30 84
e 30 83
e 30 82
e 30 76
e 30 75
e 30 69
e 30 68
e 30 66
e 30 62
e 30 61
e 30 58
e 30 53
e 30 52
e 30 46
e 30 45
e 30 41
e 30 38
e 30 36
e 30 28
e 30 25
e 30 24
e 30 22
e 30 20
e 30 13
e 30 10
e 30 2
e 31 122
e 31 120
e 31 119
e 31 117
e 31 110
e 31 109
e 31 108
e 31 103
e 31 102
e 31 98
e 31 90
e 31 80
e 31 79
e 31 74
e 31 72
e 31 67
e 31 64
e 31 57
e 31 55
e 31 47
e 31 44
e 31 37
e 31 33
e 31 32
e 31 27
e 31 12
e 31 1
e 32 120
e 32 117
e 32 112
e 32 109
e 32 102
e 32 98
e 32 90
e 32 87
e 32 80
e 32 79
e 32 74
e 32 48
e 32 47
e 32 37
e 32 35
e 32 33
e 32 31
e 32 16
e 32 12
e 32 5
e 32 3
e 32 1
e 33 125
e 33 121
e 33 120
e 33 117
e 33 114
e 33 110
e 33 109
e 33 108
e 33 105
e 33 102
e 33 97
e 33 90
e 33 87
e 33 80
e 33 79
e 33 78
e 33 74
e 33 65
e 33 48
e 33 47
e 33 39
e 33 37
e 33 35
e 33 32
e 33 31
e 33 16
e 33 12
e 33 5
e 33 1
e 34 125
e 34 121
e 34 97
e 34 65
e 34 51
e 34 35
e 35 121
e 35 117
e 35 105
e 35 97
e 35 87
e 35 74
e 35 65
e 35 63
e 35 48
e 35 34
e 35 33
e 35 32
e 35 16
e 35 12
e 35 5
e 35 3
e 36 127
e 36 126
e 36 123
e 36 118
e 36 116
e 36 115
e 36 113
e 36 111
e 36 94
e 36 93
e 36 86
e 36 83
e 36 82
e 36 75
e 36 69
e 36 66
e 36 61
e 36 58
e 36 53
e 36 52
e 36 46
e 36 45
e 36 41
e 36 38
e 36 30
e 36 28
e 36 25
e 36 24
e 36 22
e 36 20
e 36 10
e 36 2
e 37 120
e 37 112
e 37 109
e 37 103
e 37 102
e 37 98
e 37 87
e 37 80
e 37 72
e 37 48
e 37 47
e 37 44
e 37 33
e 37 32
e 37 31
e 37 16
e 37 12
e 37 5
e 37 1
e 38 127
e 38 126
e 38 123
e 38 118
e 38 116
e 38 115
e 38 113
e 38 111
e 38 107
e 38 99
e 38 96
e 38 94
e 38 93
e 38 92
e 38 91
e 38 86
e 38 84
e 38 83
e 38 82
e 38 75
e 38 69
e 38 68
e 38 66
e 38 62
e 38 61
e 38 58
e 38 53
e 38 52
e 38 46
e 38 45
e 38 41
e 38 36
e 38 30
e 38 28
e 38 25
e 38 24
e 38 22
e 38 20
e 38 10
e 38 2
e 39 128
e 39 125
e 39 121
e 39 117
e 39 114
e 39 110
e 39 109
e 39 108
e 39 105
e 39 102
e 39 101
e 39 100
e 39 99
e 39 97
e 39 92
e 39 91
e 39 90
e 39 88
e 39 80
e 39 79
e 39 78
e 39 76
e 39 74
e 39 73
e 39 68
e 39 66
e 39 65
e 39 62
e 39 52
e 39 51
e 39 43
e 39 33
e 39 28
e 39 27
e 39 19
e 39 14
e 39 8
e 39 7
e 40 124
e 40 104
e 40 77
e 40 59
e 40 54
e 40 49
e 40 29
e 40 26
e 40 21
e 40 18
e 40 15
e 40 9
e 40 4
e 41 127
e 41 126
e 41 123
e 41 118
e 41 116
e 41 115
e 41 113
e 41 111
e 41 107
e 41 99
e 41 96
e 41 94
e 41 93
e 41 92
e 41 86
e 41 84
e 41 83
e 41 82
e 41 75
e 41 71
e 41 69
e 41 68
e 41 66
e 41 61
e 41 58
e 41 53
e 41 52
e 41 46
e 41 45
e 41 38
e 41 36
e 41 30
e 41 28
e 41 25
e 41 24
e 41 22
e 41 20
e 41 13
e 41 10
e 41 6
e 41 2
e 42 104
e 42 85
e 42 81
e 42 63
e 42 59
e 42 50
e 42 49
e 42 21
e 42 17
e 42 11
e 42 9
e 42 3
e 43 128
e 43 126
e 43 125
e 43 123
e 43 122
e 43 117
e 43 115
e 43 114
e 43 113
e 43 110
e 43 109
e 43 108
e 43 107
e 43 105
e 43 102
e 43 101
e 43 100
e 43 99
e 43 97
e 43 94
e 43 92
e 43 91
e 43 90
e 43 88
e 43 83
e 43 80
e 43 79
e 43 78
e 43 76
e 43 74
e 43 73
e 43 69
e 43 68
e 43 66
e 43 65
e 43 64
e 43 62
e 43 52
e 43 45
e 43 39
e 43 28
e 43 27
e 43 20
e 43 19
e 43 14
e 43 8
e 43 7
e 44 122
e 44 120
e 44 119
e 44 110
e 44 109
e 44 108
e 44 103
e 44 102
e 44 98
e 44 90
e 44 80
e 44 79
e 44 72
e 44 70
e 44 67
e 44 64
e 44 57
e 44 55
e 44 47
e 44 37
e 44 31
e 44 12
e 44 1
e 45 128
e 45 127
e 45 126
e 45 123
e 45 118
e 45 116
e 45 115
e 45 113
e 45 111
e 45 107
e 45 100
e 45 99
e 45 96
e 45 94
e 45 93
e 45 92
e 45 91
e 45 88
e 45 86
e 45 84
e 45 83
e 45 82
e 45 76
e 45 75
e 45 73
e 45 71
e 45 69
e 45 68
e 45 66
e 45 62
e 45 61
e 45 58
e 45 53
e 45 52
e 45 46
e 45 43
e 45 41
e 45 38
e 45 36
e 45 30
e 45 28
e 45 27
e 45 25
e 45 24
e 45 22
e 45 20
e 45 14
e 45 13
e 45 10
e 45 8
e 45 7
e 45 2
e 46 127
e 46 126
e 46 123
e 46 118
e 46 116
e 46 115
e 46 113
e 46 111
e 46 107
e 46 99
e 46 94
e 46 93
e 46 92
e 46 91
e 46 86
e 46 83
e 46 82
e 46 75
e 46 69
e 46 68
e 46 66
e 46 62
e 46 61
e 46 58
e 46 53
e 46 52
e 46 45
e 46 41
e 46 38
e 46 36
e 46 30
e 46 28
e 46 25
e 46 24
e 46 22
e 46 20
e 46 10
e 46 7
e 46 2
e 47 120
e 47 119
e 47 112
e 47 109
e 47 103
e 47 102
e 47 98
e 47 80
e 47 72
e 47 57
e 47 55
e 47 44
e 47 37
e 47 33
e 47 32
e 47 31
e 47 16
e 47 12
e 47 1
e 48 112
e 48 87
e 48 77
e 48 54
e 48 37
e 48 35
e 48 33
e 48 32
e 48 29
e 48 21
e 48 16
e 48 15
e 48 12
e 48 9
e 48 5
e 48 4
e 48 3
e 49 124
e 49 104
e 49 85
e 49 81
e 49 77
e 49 63
e 49 59
e 49 54
e 49 50
e 49 42
e 49 40
e 49 29
e 49 26
e 49 21
e 49 18
e 49 17
e 49 15
e 49 11
e 49 9
e 49 4
e 49 3
e 50 104
e 50 85
e 50 81
e 50 63
e 50 59
e 50 49
e 50 42
e 50 17
e 50 11
e 50 3
e 51 125
e 51 121
e 51 117
e 51 114
e 51 105
e 51 101
e 51 100
e 51 97
e 51 78
e 51 74
e 51 73
e 51 65
e 51 39
e 51 34
e 51 19
e 52 128
e 52 127
e 52 126
e 52 123
e 52 118
e 52 116
e 52 115
e 52 114
e 52 113
e 52 111
e 52 110
e 52 108
e 52 107
e 52 101
e 52 100
e 52 99
e 52 96
e 52 94
e 52 93
e 52 92
e 52 91
e 52 88
e 52 86
e 52 84
e 52 83
e 52 82
e 52 79
e 52 78
e 52 76
e 52 75
e 52 73
e 52 69
e 52 68
e 52 66
e 52 64
e 52 62
e 52 61
e 52 58
e 52 53
e 52 46
e 52 45
e 52 43
e 52 41
e 52 39
e 52 38
e 52 36
e 52 30
e 52 28
e 52 27
e 52 25
e 52 24
e 52 22
e 52 20
e 52 19
e 52 14
e 52 10
e 52 8
e 52 7
e 52 2
e 53 127
e 53 126
e 53 123
e 53 118
e 53 116
e 53 115
e 53 113
e 53 111
e 53 107
e 53 99
e 53 96
e 53 94
e 53 93
e 53 92
e 53 91
e 53 88
e 53 86
e 53 84
e 53 83
e 53 82
e 53 75
e 53 69
e 53 68
e 53 66
e 53 62
e 53 61
e 53 58
e 53 52
e 53 46
e 53 45
e 53 41
e 53 38
e 53 36
e 53 30
e 53 28
e 53 25
e 53 24
e 53 22
e 53 20
e 53 10
e 53 2
e 54 124
e 54 112
e 54 104
e 54 77
e 54 49
e 54 48
e 54 40
e 54 29
e 54 26
e 54 21
e 54 18
e 54 15
e 54 9
e 54 4
e 55 128
e 55 122
e 55 120
e 55 119
e 55 110
e 55 109
e 55 108
e 55 103
e 55 102
e 55 98
e 55 90
e 55 88
e 55 80
e 55 79
e 55 76
e 55 72
e 55 70
e 55 67
e 55 64
e 55 57
e 55 47
e 55 44
e 55 31
e 55 27
e 55 23
e 55 12
e 55 1
e 56 127
e 56 122
e 56 111
e 56 106
e 56 96
e 56 95
e 56 89
e 56 84
e 56 71
e 56 70
e 56 67
e 56 64
e 56 60
e 56 23
e 56 13
e 56 6
e 57 128
e 57 122
e 57 120
e 57 119
e 57 110
e 57 109
e 57 108
e 57 103
e 57 102
e 57 98
e 57 90
e 57 89
e 57 88
e 57 80
e 57 79
e 57 76
e 57 72
e 57 70
e 57 67
e 57 64
e 57 55
e 57 47
e 57 44
e 57 31
e 57 27
e 57 23
e 57 1
e 58 127
e 58 126
e 58 123
e 58 118
e 58 116
e 58 115
e 58 113
e 58 111
e 58 107
e 58 99
e 58 94
e 58 93
e 58 92
e 58 91
e 58 88
e 58 86
e 58 84
e 58 83
e 58 82
e 58 75
e 58 69
e 58 68
e 58 66
e 58 62
e 58 61
e 58 53
e 58 52
e 58 46
e 58 45
e 58 41
e 58 38
e 58 36
e 58 30
e 58 28
e 58 25
e 58 24
e 58 22
e 58 20
e 58 10
e 58 8
e 58 7
e 58 2
e 59 124
e 59 104
e 59 85
e 59 81
e 59 63
e 59 50
e 59 49
e 59 42
e 59 40
e 59 26
e 59 21
e 59 18
e 59 17
e 59 11
e 59 9
e 59 4
e 59 3
e 60 127
e 60 122
e 60 111
e 60 107
e 60 106
e 60 96
e 60 95
e 60 93
e 60 89
e 60 84
e 60 75
e 60 71
e 60 70
e 60 67
e 60 64
e 60 56
e 60 23
e 60 13
e 60 6
e 60 2
e 61 127
e 61 126
e 61 123
e 61 118
e 61 116
e 61 115
e 61 113
e 61 111
e 61 107
e 61 94
e 61 93
e 61 92
e 61 86
e 61 84
e 61 83
e 61 82
e 61 75
e 61 69
e 61 68
e 61 66
e 61 58
e 61 53
e 61 52
e 61 46
e 61 45
e 61 41
e 61 38
e 61 36
e 61 30
e 61 28
e 61 25
e 61 24
e 61 22
e 61 20
e 61 10
e 61 2
e 62 128
e 62 127
e 62 126
e 62 125
e 62 123
e 62 122
e 62 117
e 62 116
e 62 115
e 62 114
e 62 113
e 62 110
e 62 108
e 62 107
e 62 105
e 62 101
e 62 100
e 62 99
e 62 97
e 62 94
e 62 93
e 62 92
e 62 91
e 62 90
e 62 88
e 62 83
e 62 82
e 62 79
e 62 78
e 62 76
e 62 75
e 62 74
e 62 73
e 62 69
e 62 68
e 62 66
e 62 64
e 62 58
e 62 53
e 62 52
e 62 46
e 62 45
e 62 43
e 62 39
e 62 38
e 62 30
e 62 28
e 62 27
e 62 25
e 62 24
e 62 20
e 62 19
e 62 14
e 62 10
e 62 8
e 62 7
e 62 2
e 63 104
e 63 85
e 63 81
e 63 59
e 63 50
e 63 49
e 63 42
e 63 35
e 63 17
e 63 11
e 63 5
e 63 3
e 64 128
e 64 127
e 64 123
e 64 122
e 64 119
e 64 114
e 64 110
e 64 109
e 64 108
e 64 107
e 64 103
e 64 100
e 64 98
e 64 96
e 64 92
e 64 91
e 64 90
e 64 89
e 64 88
e 64 84
e 64 80
e 64 79
e 64 76
e 64 75
e 64 71
e 64 70
e 64 68
e 64 67
e 64 62
e 64 60
e 64 57
e 64 56
e 64 55
e 64 52
e 64 44
e 64 43
e 64 31
e 64 28
e 64 27
e 64 23
e 64 13
e 64 8
e 64 6
e 64 2
e 64 1
e 65 125
e 65 121
e 65 117
e 65 114
e 65 105
e 65 102
e 65 101
e 65 100
e 65 97
e 65 90
e 65 79
e 65 78
e 65 74
e 65 73
e 65 51
e 65 43
e 65 39
e 65 35
e 65 34
e 65 33
e 65 19
e 65 16
e 65 14
e 65 8
e 66 128
e 66 127
e 66 126
e 66 123
e 66 118
e 66 116
e 66 115
e 66 114
e 66 113
e 66 111
e 66 110
e 66 107
e 66 101
e 66 100
e 66 99
e 66 96
e 66 94
e 66 93
e 66 92
e 66 91
e 66 88
e 66 86
e 66 84
e 66 83
e 66 82
e 66 76
e 66 75
e 66 73
e 66 69
e 66 68
e 66 62
e 66 61
e 66 58
e 66 53
e 66 52
e 66 46
e 66 45
e 66 43
e 66 41
e 66 39
e 66 38
e 66 36
e 66 30
e 66 28
e 66 27
e 66 25
e 66 24
e 66 22
e 66 20
e 66 19
e 66 14
e 66 10
e 66 8
e 66 7
e 66 2
e 67 128
e 67 122
e 67 120
e 67 119
e 67 110
e 67 109
e 67 108
e 67 103
e 67 98
e 67 96
e 67 90
e 67 89
e 67 88
e 67 80
e 67 79
e 67 76
e 67 72
e 67 71
e 67 70
e 67 68
e 67 64
e 67 60
e 67 57
e 67 56
e 67 55
e 67 44
e 67 31
e 67 27
e 67 23
e 67 13
e 67 6
e 67 1
e 68 128
e 68 127
e 68 126
e 68 125
e 68 123
e 68 122
e 68 116
e 68 115
e 68 114
e 68 113
e 68 111
e 68 110
e 68 109
e 68 108
e 68 107
e 68 102
e 68 101
e 68 100
e 68 99
e 68 96
e 68 94
e 68 93
e 68 92
e 68 91
e 68 90
e 68 88
e 68 84
e 68 83
e 68 82
e 68 79
e 68 78
e 68 76
e 68 75
e 68 74
e 68 73
e 68 71
e 68 70
e 68 69
e 68 67
e 68 66
e 68 64
e 68 62
e 68 61
e 68 58
e 68 53
e 68 52
e 68 46
e 68 45
e 68 43
e 68 41
e 68 39
e 68 38
e 68 30
e 68 28
e 68 27
e 68 25
e 68 24
e 68 20
e 68 19
e 68 14
e 68 10
e 68 8
e 68 7
e 68 2
e 69 128
e 69 127
e 69 126
e 69 123
e 69 118
e 69 116
e 69 115
e 69 113
e 69 111
e 69 107
e 69 100
e 69 99
e 69 96
e 69 94
e 69 93
e 69 92
e 69 91
e 69 88
e 69 86
e 69 84
e 69 83
e 69 82
e 69 76
e 69 75
e 69 73
e 69 68
e 69 66
e 69 62
e 69 61
e 69 58
e 69 53
e 69 52
e 69 46
e 69 45
e 69 43
e 69 41
e 69 38
e 69 36
e 69 30
e 69 28
e 69 27
e 69 25
e 69 24
e 69 22
e 69 20
e 69 14
e 69 10
e 69 8
e 69 7
e 69 2
e 70 128
e 70 127
e 70 122
e 70 111
e 70 110
e 70 109
e 70 108
e 70 107
e 70 106
e 70 103
e 70 98
e 70 96
e 70 95
e 70 92
e 70 89
e 70 88
e 70 84
e 70 76
e 70 75
e 70 71
e 70 68
e 70 67
e 70 64
e 70 60
e 70 57
e 70 56
e 70 55
e 70 44
e 70 27
e 70 23
e 70 13
e 70 6
e 70 2
e 70 1
e 71 127
e 71 126
e 71 123
e 71 122
e 71 113
e 71 111
e 71 107
e 71 106
e 71 96
e 71 95
e 71 93
e 71 92
e 71 89
e 71 88
e 71 84
e 71 76
e 71 75
e 71 70
e 71 68
e 71 67
e 71 64
e 71 60
e 71 56
e 71 45
e 71 41
e 71 24
e 71 23
e 71 13
e 71 10
e 71 6
e 71 2
e 72 120
e 72 119
e 72 109
e 72 108
e 72 103
e 72 102
e 72 98
e 72 80
e 72 67
e 72 57
e 72 55
e 72 47
e 72 44
e 72 37
e 72 31
e 72 1
e 73 128
e 73 126
e 73 125
e 73 123
e 73 117
e 73 115
e 73 114
e 73 110
e 73 108
e 73 105
e 73 101
e 73 100
e 73 99
e 73 97
e 73 92
e 73 91
e 73 90
e 73 88
e 73 83
e 73 79
e 73 78
e 73 76
e 73 74
e 73 69
e 73 68
e 73 66
e 73 65
e 73 62
e 73 52
e 73 51
e 73 45
e 73 43
e 73 39
e 73 28
e 73 27
e 73 19
e 73 14
e 73 8
e 73 7
e 74 128
e 74 125
e 74 121
e 74 117
e 74 114
e 74 110
e 74 109
e 74 108
e 74 105
e 74 102
e 74 101
e 74 100
e 74 98
e 74 97
e 74 91
e 74 90
e 74 88
e 74 80
e 74 79
e 74 78
e 74 76
e 74 73
e 74 68
e 74 65
e 74 62
e 74 51
e 74 43
e 74 39
e 74 35
e 74 33
e 74 32
e 74 31
e 74 28
e 74 27
e 74 19
e 74 16
e 74 12
e 74 8
e 74 1
e 75 128
e 75 127
e 75 126
e 75 123
e 75 122
e 75 118
e 75 116
e 75 115
e 75 113
e 75 111
e 75 107
e 75 99
e 75 96
e 75 94
e 75 93
e 75 92
e 75 91
e 75 89
e 75 88
e 75 86
e 75 84
e 75 83
e 75 82
e 75 76
e 75 71
e 75 70
e 75 69
e 75 68
e 75 66
e 75 64
e 75 62
e 75 61
e 75 60
e 75 58
e 75 53
e 75 52
e 75 46
e 75 45
e 75 41
e 75 38
e 75 36
e 75 30
e 75 28
e 75 27
e 75 25
e 75 24
e 75 23
e 75 20
e 75 13
e 75 10
e 75 8
e 75 6
e 75 2
e 76 128
e 76 127
e 76 126
e 76 125
e 76 123
e 76 122
e 76 117
e 76 115
e 76 114
e 76 113
e 76 111
e 76 110
e 76 109
e 76 108
e 76 107
e 76 105
e 76 102
e 76 101
e 76 100
e 76 99
e 76 96
e 76 94
e 76 93
e 76 92
e 76 91
e 76 90
e 76 89
e 76 88
e 76 83
e 76 80
e 76 79
e 76 78
e 76 75
e 76 74
e 76 73
e 76 71
e 76 70
e 76 69
e 76 68
e 76 67
e 76 66
e 76 64
e 76 62
e 76 57
e 76 55
e 76 52
e 76 45
e 76 43
e 76 39
e 76 30
e 76 28
e 76 27
e 76 23
e 76 20
e 76 19
e 76 14
e 76 13
e 76 10
e 76 8
e 76 7
e 76 6
e 76 2
e 76 1
e 77 124
e 77 112
e 77 104
e 77 54
e 77 49
e 77 48
e 77 40
e 77 29
e 77 26
e 77 21
e 77 18
e 77 15
e 77 9
e 77 5
e 77 4
e 78 128
e 78 125
e 78 121
e 78 117
e 78 114
e 78 110
e 78 109
e 78 108
e 78 105
e 78 102
e 78 101
e 78 100
e 78 99
e 78 97
e 78 92
e 78 91
e 78 90
e 78 88
e 78 80
e 78 79
e 78 76
e 78 74
e 78 73
e 78 68
e 78 65
e 78 62
e 78 52
e 78 51
e 78 43
e 78 39
e 78 33
e 78 28
e 78 27
e 78 19
e 78 14
e 78 8
e 78 7
e 79 128
e 79 125
e 79 117
e 79 114
e 79 110
e 79 109
e 79 108
e 79 105
e 79 103
e 79 102
e 79 101
e 79 100
e 79 99
e 79 98
e 79 97
e 79 92
e 79 91
e 79 90
e 79 88
e 79 80
e 79 78
e 79 76
e 79 74
e 79 73
e 79 68
e 79 67
e 79 65
e 79 64
e 79 62
e 79 57
e 79 55
e 79 52
e 79 44
e 79 43
e 79 39
e 79 33
e 79 32
e 79 31
e 79 28
e 79 27
e 79 19
e 79 16
e 79 12
e 79 8
e 79 1
e 80 128
e 80 125
e 80 120
e 80 119
e 80 117
e 80 114
e 80 110
e 80 109
e 80 108
e 80 105
e 80 103
e 80 102
e 80 100
e 80 98
e 80 97
e 80 90
e 80 88
e 80 79
e 80 78
e 80 76
e 80 74
e 80 72
e 80 67
e 80 64
e 80 57
e 80 55
e 80 47
e 80 44
e 80 43
e 80 39
e 80 37
e 80 33
e 80 32
e 80 31
e 80 27
e 80 16
e 80 12
e 80 1
e 81 104
e 81 85
e 81 63
e 81 59
e 81 50
e 81 49
e 81 42
e 81 21
e 81 17
e 81 11
e 81 9
e 81 5
e 81 3
e 82 127
e 82 126
e 82 123
e 82 118
e 82 116
e 82 115
e 82 113
e 82 111
e 82 99
e 82 94
e 82 93
e 82 92
e 82 86
e 82 84
e 82 83
e 82 75
e 82 69
e 82 68
e 82 66
e 82 62
e 82 61
e 82 58
e 82 53
e 82 52
e 82 46
e 82 45
e 82 41
e 82 38
e 82 36
e 82 30
e 82 28
e 82 25
e 82 24
e 82 22
e 82 20
e 82 10
e 82 2
e 83 128
e 83 127
e 83 126
e 83 123
e 83 118
e 83 116
e 83 115
e 83 113
e 83 111
e 83 107
e 83 100
e 83 99
e 83 94
e 83 93
e 83 92
e 83 91
e 83 88
e 83 86
e 83 82
e 83 76
e 83 75
e 83 73
e 83 69
e 83 68
e 83 66
e 83 62
e 83 61
e 83 58
e 83 53
e 83 52
e 83 46
e 83 45
e 83 43
e 83 41
e 83 38
e 83 36
e 83 30
e 83 28
e 83 27
e 83 25
e 83 24
e 83 22
e 83 20
e 83 14
e 83 10
e 83 8
e 83 7
e 83 2
e 84 127
e 84 126
e 84 123
e 84 122
e 84 116
e 84 115
e 84 113
e 84 111
e 84 107
e 84 106
e 84 96
e 84 95
e 84 94
e 84 93
e 84 92
e 84 89
e 84 86
e 84 82
e 84 75
e 84 71
e 84 70
e 84 69
e 84 68
e 84 66
e 84 64
e 84 61
e 84 60
e 84 58
e 84 56
e 84 53
e 84 52
e 84 45
e 84 41
e 84 38
e 84 30
e 84 25
e 84 24
e 84 23
e 84 20
e 84 13
e 84 10
e 84 6
e 84 2
e 85 104
e 85 81
e 85 63
e 85 59
e 85 50
e 85 49
e 85 42
e 85 17
e 85 11
e 85 9
e 85 3
e 86 127
e 86 126
e 86 123
e 86 118
e 86 116
e 86 115
e 86 113
e 86 111
e 86 94
e 86 93
e 86 92
e 86 84
e 86 83
e 86 82
e 86 75
e 86 69
e 86 66
e 86 61
e 86 58
e 86 53
e 86 52
e 86 46
e 86 45
e 86 41
e 86 38
e 86 36
e 86 30
e 86 28
e 86 25
e 86 24
e 86 22
e 86 20
e 86 10
e 86 2
e 87 48
e 87 37
e 87 35
e 87 33
e 87 32
e 87 16
e 87 12
e 87 9
e 87 5
e 87 3
e 88 128
e 88 127
e 88 126
e 88 125
e 88 123
e 88 122
e 88 117
e 88 116
e 88 115
e 88 114
e 88 113
e 88 110
e 88 109
e 88 108
e 88 107
e 88 105
e 88 102
e 88 101
e 88 100
e 88 99
e 88 96
e 88 94
e 88 93
e 88 92
e 88 91
e 88 90
e 88 83
e 88 80
e 88 79
e 88 78
e 88 76
e 88 75
e 88 74
e 88 73
e 88 71
e 88 70
e 88 69
e 88 68
e 88 67
e 88 66
e 88 64
e 88 62
e 88 58
e 88 57
e 88 55
e 88 53
e 88 52
e 88 45
e 88 43
e 88 39
e 88 30
e 88 28
e 88 27
e 88 24
e 88 20
e 88 19
e 88 14
e 88 10
e 88 8
e 88 7
e 88 2
e 88 1
e 89 127
e 89 122
e 89 111
e 89 107
e 89 106
e 89 96
e 89 95
e 89 93
e 89 84
e 89 76
e 89 75
e 89 71
e 89 70
e 89 67
e 89 64
e 89 60
e 89 57
e 89 56
e 89 23
e 89 13
e 89 6
e 89 2
e 90 128
e 90 125
e 90 120
e 90 117
e 90 114
e 90 110
e 90 109
e 90 108
e 90 105
e 90 103
e 90 102
e 90 101
e 90 100
e 90 98
e 90 97
e 90 92
e 90 91
e 90 88
e 90 80
e 90 79
e 90 78
e 90 76
e 90 74
e 90 73
e 90 68
e 90 67
e 90 65
e 90 64
e 90 62
e 90 57
e 90 55
e 90 44
e 90 43
e 90 39
e 90 33
e 90 32
e 90 31
e 90 27
e 90 19
e 90 16
e 90 12
e 90 8
e 90 1
e 91 128
e 91 127
e 91 126
e 91 125
e 91 123
e 91 122
e 91 117
e 91 116
e 91 115
e 91 114
e 91 113
e 91 110
e 91 108
e 91 107
e 91 105
e 91 101
e 91 100
e 91 99
e 91 97
e 91 94
e 91 93
e 91 92
e 91 90
e 91 88
e 91 83
e 91 79
e 91 78
e 91 76
e 91 75
e 91 74
e 91 73
e 91 69
e 91 68
e 91 66
e 91 64
e 91 62
e 91 58
e 91 53
e 91 52
e 91 46
e 91 45
e 91 43
e 91 39
e 91 38
e 91 30
e 91 28
e 91 27
e 91 25
e 91 24
e 91 20
e 91 19
e 91 14
e 91 10
e 91 8
e 91 7
e 91 2
e 92 128
e 92 127
e 92 126
e 92 123
e 92 122
e 92 118
e 92 116
e 92 115
e 92 114
e 92 113
e 92 111
e 92 110
e 92 108
e 92 107
e 92 101
e 92 100
e 92 99
e 92 96
e 92 94
e 92 93
e 92 91
e 92 90
e 92 88
e 92 86
e 92 84
e 92 83
e 92 82
e 92 79
e 92 78
e 92 76
e 92 75
e 92 73
e 92 71
e 92 70
e 92 69
e 92 68
e 92 66
e 92 64
e 92 62
e 92 61
e 92 58
e 92 53
e 92 52
e 92 46
e 92 45
e 92 43
e 92 41
e 92 39
e 92 38
e 92 30
e 92 28
e 92 27
e 92 25
e 92 24
e 92 20
e 92 19
e 92 14
e 92 10
e 92 8
e 92 7
e 92 2
e 93 127
e 93 126
e 93 123
e 93 118
e 93 116
e 93 115
e 93 113
e 93 111
e 93 107
e 93 99
e 93 96
e 93 94
e 93 92
e 93 91
e 93 89
e 93 88
e 93 86
e 93 84
e 93 83
e 93 82
e 93 76
e 93 75
e 93 71
e 93 69
e 93 68
e 93 66
e 93 62
e 93 61
e 93 60
e 93 58
e 93 53
e 93 52
e 93 46
e 93 45
e 93 41
e 93 38
e 93 36
e 93 30
e 93 28
e 93 25
e 93 24
e 93 22
e 93 20
e 93 13
e 93 10
e 93 6
e 93 2
e 94 128
e 94 127
e 94 126
e 94 123
e 94 118
e 94 116
e 94 115
e 94 113
e 94 111
e 94 107
e 94 99
e 94 93
e 94 92
e 94 91
e 94 88
e 94 86
e 94 84
e 94 83
e 94 82
e 94 76
e 94 75
e 94 69
e 94 68
e 94 66
e 94 62
e 94 61
e 94 58
e 94 53
e 94 52
e 94 46
e 94 45
e 94 43
e 94 41
e 94 38
e 94 36
e 94 30
e 94 28
e 94 25
e 94 24
e 94 22
e 94 20
e 94 14
e 94 10
e 94 8
e 94 7
e 94 2
e 95 127
e 95 122
e 95 106
e 95 96
e 95 89
e 95 84
e 95 71
e 95 70
e 95 60
e 95 56
e 95 23
e 95 13
e 95 6
e 96 127
e 96 126
e 96 123
e 96 122
e 96 116
e 96 115
e 96 113
e 96 111
e 96 107
e 96 106
e 96 95
e 96 93
e 96 92
e 96 89
e 96 88
e 96 84
e 96 76
e 96 75
e 96 71
e 96 70
e 96 69
e 96 68
e 96 67
e 96 66
e 96 64
e 96 60
e 96 56
e 96 53
e 96 52
e 96 45
e 96 41
e 96 38
e 96 30
e 96 28
e 96 24
e 96 23
e 96 20
e 96 13
e 96 10
e 96 6
e 96 2
e 97 128
e 97 125
e 97 121
e 97 117
e 97 114
e 97 110
e 97 109
e 97 108
e 97 105
e 97 102
e 97 101
e 97 100
e 97 91
e 97 90
e 97 80
e 97 79
e 97 78
e 97 74
e 97 73
e 97 65
e 97 62
e 97 51
e 97 43
e 97 39
e 97 35
e 97 34
e 97 33
e 97 27
e 97 19
e 97 16
e 97 14
e 97 8
e 98 128
e 98 122
e 98 120
e 98 119
e 98 110
e 98 109
e 98 108
e 98 103
e 98 102
e 98 90
e 98 80
e 98 79
e 98 74
e 98 72
e 98 70
e 98 67
e 98 64
e 98 57
e 98 55
e 98 47
e 98 44
e 98 37
e 98 32
e 98 31
e 98 27
e 98 12
e 98 1
e 99 128
e 99 127
e 99 126
e 99 123
e 99 118
e 99 116
e 99 115
e 99 114
e 99 113
e 99 110
e 99 107
e 99 101
e 99 100
e 99 94
e 99 93
e 99 92
e 99 91
e 99 88
e 99 83
e 99 82
e 99 79
e 99 78
e 99 76
e 99 75
e 99 73
e 99 69
e 99 68
e 99 66
e 99 62
e 99 58
e 99 53
e 99 52
e 99 46
e 99 45
e 99 43
e 99 41
e 99 39
e 99 38
e 99 30
e 99 28
e 99 27
e 99 25
e 99 24
e 99 20
e 99 19
e 99 14
e 99 10
e 99 8
e 99 7
e 99 2
e 100 128
e 100 126
e 100 125
e 100 123
e 100 117
e 100 115
e 100 114
e 100 110
e 100 108
e 100 107
e 100 105
e 100 102
e 100 101
e 100 99
e 100 97
e 100 92
e 100 91
e 100 90
e 100 88
e 100 83
e 100 80
e 100 79
e 100 78
e 100 76
e 100 74
e 100 73
e 100 69
e 100 68
e 100 66
e 100 65
e 100 64
e 100 62
e 100 52
e 100 51
e 100 45
e 100 43
e 100 39
e 100 28
e 100 27
e 100 19
e 100 14
e 100 8
e 100 7
e 101 128
e 101 125
e 101 117
e 101 115
e 101 114
e 101 110
e 101 105
e 101 100
e 101 99
e 101 97
e 101 92
e 101 91
e 101 90
e 101 88
e 101 79
e 101 78
e 101 76
e 101 74
e 101 73
e 101 68
e 101 66
e 101 65
e 101 62
e 101 52
e 101 51
e 101 43
e 101 39
e 101 28
e 101 27
e 101 19
e 101 14
e 101 8
e 101 7
e 102 128
e 102 125
e 102 120
e 102 117
e 102 114
e 102 110
e 102 109
e 102 108
e 102 105
e 102 103
e 102 100
e 102 98
e 102 97
e 102 90
e 102 88
e 102 80
e 102 79
e 102 78
e 102 76
e 102 74
e 102 72
e 102 68
e 102 65
e 102 57
e 102 55
e 102 47
e 102 44
e 102 43
e 102 39
e 102 37
e 102 33
e 102 32
e 102 31
e 102 27
e 102 16
e 102 12
e 102 8
e 102 1
e 103 122
e 103 120
e 103 119
e 103 110
e 103 109
e 103 108
e 103 102
e 103 98
e 103 90
e 103 80
e 103 79
e 103 72
e 103 70
e 103 67
e 103 64
e 103 57
e 103 55
e 103 47
e 103 44
e 103 37
e 103 31
e 103 27
e 103 12
e 103 1
e 104 124
e 104 85
e 104 81
e 104 77
e 104 63
e 104 59
e 104 54
e 104 50
e 104 49
e 104 42
e 104 40
e 104 29
e 104 26
e 104 21
e 104 18
e 104 15
e 104 11
e 104 9
e 104 5
e 104 4
e 104 3
e 105 128
e 105 125
e 105 121
e 105 117
e 105 114
e 105 110
e 105 109
e 105 108
e 105 102
e 105 101
e 105 100
e 105 97
e 105 91
e 105 90
e 105 88
e 105 80
e 105 79
e 105 78
e 105 76
e 105 74
e 105 73
e 105 65
e 105 62
e 105 51
e 105 43
e 105 39
e 105 35
e 105 33
e 105 27
e 105 19
e 105 16
e 105 8
e 105 1
e 106 96
e 106 95
e 106 89
e 106 84
e 106 71
e 106 70
e 106 60
e 106 56
e 106 23
e 106 13
e 106 6
e 107 128
e 107 127
e 107 126
e 107 123
e 107 122
e 107 116
e 107 115
e 107 113
e 107 111
e 107 110
e 107 100
e 107 99
e 107 96
e 107 94
e 107 93
e 107 92
e 107 91
e 107 89
e 107 88
e 107 84
e 107 83
e 107 76
e 107 75
e 107 71
e 107 70
e 107 69
e 107 68
e 107 66
e 107 64
e 107 62
e 107 61
e 107 60
e 107 58
e 107 53
e 107 52
e 107 46
e 107 45
e 107 43
e 107 41
e 107 38
e 107 30
e 107 28
e 107 27
e 107 25
e 107 24
e 107 23
e 107 20
e 107 13
e 107 10
e 107 8
e 107 7
e 107 6
e 107 2
e 108 128
e 108 125
e 108 122
e 108 120
e 108 117
e 108 114
e 108 110
e 108 109
e 108 105
e 108 103
e 108 102
e 108 100
e 108 98
e 108 97
e 108 92
e 108 91
e 108 90
e 108 88
e 108 80
e 108 79
e 108 78
e 108 76
e 108 74
e 108 73
e 108 72
e 108 70
e 108 68
e 108 67
e 108 64
e 108 62
e 108 57
e 108 55
e 108 52
e 108 44
e 108 43
e 108 39
e 108 33
e 108 31
e 108 28
e 108 27
e 108 19
e 108 12
e 108 8
e 108 1
e 109 128
e 109 122
e 109 120
e 109 119
e 109 117
e 109 114
e 109 110
e 109 108
e 109 105
e 109 103
e 109 102
e 109 98
e 109 97
e 109 90
e 109 88
e 109 80
e 109 79
e 109 78
e 109 76
e 109 74
e 109 72
e 109 70
e 109 68
e 109 67
e 109 64
e 109 57
e 109 55
e 109 47
e 109 44
e 109 43
e 109 39
e 109 37
e 109 33
e 109 32
e 109 31
e 109 27
e 109 12
e 109 1
e 110 128
e 110 126
e 110 125
e 110 123
e 110 122
e 110 117
e 110 114
e 110 109
e 110 108
e 110 107
e 110 105
e 110 103
e 110 102
e 110 101
e 110 100
e 110 99
e 110 98
e 110 97
e 110 92
e 110 91
e 110 90
e 110 88
e 110 80
e 110 79
e 110 78
e 110 76
e 110 74
e 110 73
e 110 70
e 110 68
e 110 67
e 110 66
e 110 64
e 110 62
e 110 57
e 110 55
e 110 52
e 110 44
e 110 43
e 110 39
e 110 33
e 110 31
e 110 28
e 110 27
e 110 19
e 110 16
e 110 12
e 110 8
e 110 7
e 110 1
e 111 127
e 111 126
e 111 123
e 111 122
e 111 118
e 111 116
e 111 115
e 111 113
e 111 107
e 111 96
e 111 94
e 111 93
e 111 92
e 111 89
e 111 86
e 111 84
e 111 83
e 111 82
e 111 76
e 111 75
e 111 71
e 111 70
e 111 69
e 111 68
e 111 66
e 111 61
e 111 60
e 111 58
e 111 56
e 111 53
e 111 52
e 111 46
e 111 45
e 111 41
e 111 38
e 111 36
e 111 30
e 111 28
e 111 25
e 111 24
e 111 23
e 111 20
e 111 13
e 111 10
e 111 6
e 111 2
e 112 120
e 112 77
e 112 54
e 112 48
e 112 47
e 112 37
e 112 32
e 112 29
e 112 15
e 112 12
e 113 128
e 113 127
e 113 126
e 113 123
e 113 118
e 113 116
e 113 115
e 113 111
e 113 107
e 113 99
e 113 96
e 113 94
e 113 93
e 113 92
e 113 91
e 113 88
e 113 86
e 113 84
e 113 83
e 113 82
e 113 76
e 113 75
e 113 71
e 113 69
e 113 68
e 113 66
e 113 62
e 113 61
e 113 58
e 113 53
e 113 52
e 113 46
e 113 45
e 113 43
e 113 41
e 113 38
e 113 36
e 113 30
e 113 28
e 113 27
e 113 25
e 113 24
e 113 22
e 113 20
e 113 13
e 113 10
e 113 8
e 113 7
e 113 6
e 113 2
e 114 128
e 114 126
e 114 125
e 114 123
e 114 117
e 114 115
e 114 110
e 114 109
e 114 108
e 114 105
e 114 102
e 114 101
e 114 100
e 114 99
e 114 97
e 114 92
e 114 91
e 114 90
e 114 88
e 114 80
e 114 79
e 114 78
e 114 76
e 114 74
e 114 73
e 114 68
e 114 66
e 114 65
e 114 64
e 114 62
e 114 52
e 114 51
e 114 43
e 114 39
e 114 33
e 114 28
e 114 27
e 114 19
e 114 16
e 114 14
e 114 8
e 114 7
e 114 1
e 115 128
e 115 127
e 115 126
e 115 123
e 115 118
e 115 116
e 115 114
e 115 113
e 115 111
e 115 107
e 115 101
e 115 100
e 115 99
e 115 96
e 115 94
e 115 93
e 115 92
e 115 91
e 115 88
e 115 86
e 115 84
e 115 83
e 115 82
e 115 76
e 115 75
e 115 73
e 115 69
e 115 68
e 115 66
e 115 62
e 115 61
e 115 58
e 115 53
e 115 52
e 115 46
e 115 45
e 115 43
e 115 41
e 115 38
e 115 36
e 115 30
e 115 28
e 115 27
e 115 25
e 115 24
e 115 22
e 115 20
e 115 19
e 115 14
e 115 10
e 115 8
e 115 7
e 115 2
e 116 127
e 116 126
e 116 123
e 116 118
e 116 115
e 116 113
e 116 111
e 116 107
e 116 99
e 116 96
e 116 94
e 116 93
e 116 92
e 116 91
e 116 88
e 116 86
e 116 84
e 116 83
e 116 82
e 116 75
e 116 69
e 116 68
e 116 66
e 116 62
e 116 61
e 116 58
e 116 53
e 116 52
e 116 46
e 116 45
e 116 41
e 116 38
e 116 36
e 116 30
e 116 28
e 116 25
e 116 24
e 116 22
e 116 20
e 116 10
e 116 2
e 117 128
e 117 125
e 117 121
e 117 114
e 117 110
e 117 109
e 117 108
e 117 105
e 117 102
e 117 101
e 117 100
e 117 97
e 117 91
e 117 90
e 117 88
e 117 80
e 117 79
e 117 78
e 117 76
e 117 74
e 117 73
e 117 65
e 117 62
e 117 51
e 117 43
e 117 39
e 117 35
e 117 33
e 117 32
e 117 31
e 117 27
e 117 19
e 117 16
e 117 12
e 117 8
e 117 1
e 118 126
e 118 123
e 118 116
e 118 115
e 118 113
e 118 111
e 118 99
e 118 94
e 118 93
e 118 92
e 118 86
e 118 83
e 118 82
e 118 75
e 118 69
e 118 66
e 118 61
e 118 58
e 118 53
e 118 52
e 118 46
e 118 45
e 118 41
e 118 38
e 118 36
e 118 30
e 118 28
e 118 25
e 118 24
e 118 22
e 118 20
e 118 10
e 118 2
e 119 122
e 119 120
e 119 109
e 119 103
e 119 98
e 119 80
e 119 72
e 119 67
e 119 64
e 119 57
e 119 55
e 119 47
e 119 44
e 119 31
e 119 1
e 120 119
e 120 112
e 120 109
e 120 108
e 120 103
e 120 102
e 120 98
e 120 90
e 120 80
e 120 72
e 120 67
e 120 57
e 120 55
e 120 47
e 120 44
e 120 37
e 120 33
e 120 32
e 120 31
e 120 12
e 120 1
e 121 125
e 121 117
e 121 105
e 121 97
e 121 78
e 121 74
e 121 65
e 121 51
e 121 39
e 121 35
e 121 34
e 121 33
e 121 16
e 122 128
e 122 127
e 122 119
e 122 111
e 122 110
e 122 109
e 122 108
e 122 107
e 122 103
e 122 98
e 122 96
e 122 95
e 122 92
e 122 91
e 122 89
e 122 88
e 122 84
e 122 76
e 122 75
e 122 71
e 122 70
e 122 68
e 122 67
e 122 64
e 122 62
e 122 60
e 122 57
e 122 56
e 122 55
e 122 44
e 122 43
e 122 31
e 122 27
e 122 23
e 122 13
e 122 8
e 122 6
e 122 2
e 122 1
e 123 128
e 123 127
e 123 126
e 123 118
e 123 116
e 123 115
e 123 114
e 123 113
e 123 111
e 123 110
e 123 107
e 123 100
e 123 99
e 123 96
e 123 94
e 123 93
e 123 92
e 123 91
e 123 88
e 123 86
e 123 84
e 123 83
e 123 82
e 123 76
e 123 75
e 123 73
e 123 71
e 123 69
e 123 68
e 123 66
e 123 64
e 123 62
e 123 61
e 123 58
e 123 53
e 123 52
e 123 46
e 123 45
e 123 43
e 123 41
e 123 38
e 123 36
e 123 30
e 123 28
e 123 27
e 123 25
e 123 24
e 123 22
e 123 20
e 123 19
e 123 14
e 123 13
e 123 10
e 123 8
e 123 7
e 123 2
e 124 104
e 124 77
e 124 59
e 124 54
e 124 49
e 124 40
e 124 29
e 124 26
e 124 21
e 124 18
e 124 15
e 124 9
e 124 4
e 124 3
e 125 128
e 125 121
e 125 117
e 125 114
e 125 110
e 125 108
e 125 105
e 125 102
e 125 101
e 125 100
e 125 97
e 125 91
e 125 90
e 125 88
e 125 80
e 125 79
e 125 78
e 125 76
e 125 74
e 125 73
e 125 68
e 125 65
e 125 62
e 125 51
e 125 43
e 125 39
e 125 34
e 125 33
e 125 28
e 125 27
e 125 19
e 125 16
e 125 14
e 125 8
e 125 7
e 126 128
e 126 127
e 126 123
e 126 118
e 126 116
e 126 115
e 126 114
e 126 113
e 126 111
e 126 110
e 126 107
e 126 100
e 126 99
e 126 96
e 126 94
e 126 93
e 126 92
e 126 91
e 126 88
e 126 86
e 126 84
e 126 83
e 126 82
e 126 76
e 126 75
e 126 73
e 126 71
e 126 69
e 126 68
e 126 66
e 126 62
e 126 61
e 126 58
e 126 53
e 126 52
e 126 46
e 126 45
e 126 43
e 126 41
e 126 38
e 126 36
e 126 30
e 126 28
e 126 27
e 126 25
e 126 24
e 126 22
e 126 20
e 126 19
e 126 14
e 126 10
e 126 8
e 126 7
e 126 2
e 127 126
e 127 123
e 127 122
e 127 116
e 127 115
e 127 113
e 127 111
e 127 107
e 127 99
e 127 96
e 127 95
e 127 94
e 127 93
e 127 92
e 127 91
e 127 89
e 127 88
e 127 86
e 127 84
e 127 83
e 127 82
e 127 76
e 127 75
e 127 71
e 127 70
e 127 69
e 127 68
e 127 66
e 127 64
e 127 62
e 127 61
e 127 60
e 127 58
e 127 56
e 127 53
e 127 52
e 127 46
e 127 45
e 127 41
e 127 38
e 127 36
e 127 30
e 127 28
e 127 27
e 127 25
e 127 24
e 127 23
e 127 20
e 127 13
e 127 10
e 127 6
e 127 2
e 128 126
e 128 125
e 128 123
e 128 122
e 128 117
e 128 115
e 128 114
e 128 113
e 128 110
e 128 109
e 128 108
e 128 107
e 128 105
e 128 102
e 128 101
e 128 100
e 128 99
e 128 98
e 128 97
e 128 94
e 128 92
e 128 91
e 128 90
e 128 88
e 128 83
e 128 80
e 128 79
e 128 78
e 128 76
e 128 75
e 128 74
e 128 73
e 128 70
e 128 69
e 128 68
e 128 67
e 128 66
e 128 64
e 128 62
e 128 57
e 128 55
e 128 52
e 128 45
e 128 43
e 128 39
e 128 28
e 128 27
e 128 20
e 128 19
e 128 14
e 128 8
e 128 7
e 128 2
e 128 1
